gift64/gift_64_4.cnf
p cnf 224 578
2 -3 4 131 0
-2 -4 131 132 0
-1 2 -129 132 0
1 2 -3 131 0
1 2 3 -131 0
1 129 -130 -132 0
1 2 -3 4 -129 0
1 3 4 -130 0
-1 -3 4 129 0
-1 3 4 -129 0
3 129 -130 -131 0
-2 -129 -131 -132 0
-2 -3 -4 -129 0
3 129 130 131 0
-2 -3 129 132 0
2 -3 130 -132 0
2 129 130 -131 0
-1 -2 -4 130 0
1 -4 129 -131 0
-1 -2 -130 131 0
1 -2 -129 130 0
2 -4 -129 131 0
1 -129 -130 -131 0
-1 2 -4 -130 0
1 4 -132 0
-1 4 132 0
6 -7 8 135 0
-6 -8 135 136 0
-5 6 -133 136 0
5 6 -7 135 0
5 6 7 -135 0
5 133 -134 -136 0
5 6 -7 8 -133 0
5 7 8 -134 0
-5 -7 8 133 0
-5 7 8 -133 0
7 133 -134 -135 0
-6 -133 -135 -136 0
-6 -7 -8 -133 0
7 133 134 135 0
-6 -7 133 136 0
6 -7 134 -136 0
6 133 134 -135 0
-5 -6 -8 134 0
5 -8 133 -135 0
-5 -6 -134 135 0
5 -6 -133 134 0
6 -8 -133 135 0
5 -133 -134 -135 0
-5 6 -8 -134 0
5 8 -136 0
-5 8 136 0
10 -11 12 139 0
-10 -12 139 140 0
-9 10 -137 140 0
9 10 -11 139 0
9 10 11 -139 0
9 137 -138 -140 0
9 10 -11 12 -137 0
9 11 12 -138 0
-9 -11 12 137 0
-9 11 12 -137 0
11 137 -138 -139 0
-10 -137 -139 -140 0
-10 -11 -12 -137 0
11 137 138 139 0
-10 -11 137 140 0
10 -11 138 -140 0
10 137 138 -139 0
-9 -10 -12 138 0
9 -12 137 -139 0
-9 -10 -138 139 0
9 -10 -137 138 0
10 -12 -137 139 0
9 -137 -138 -139 0
-9 10 -12 -138 0
9 12 -140 0
-9 12 140 0
14 -15 16 143 0
-14 -16 143 144 0
-13 14 -141 144 0
13 14 -15 143 0
13 14 15 -143 0
13 141 -142 -144 0
13 14 -15 16 -141 0
13 15 16 -142 0
-13 -15 16 141 0
-13 15 16 -141 0
15 141 -142 -143 0
-14 -141 -143 -144 0
-14 -15 -16 -141 0
15 141 142 143 0
-14 -15 141 144 0
14 -15 142 -144 0
14 141 142 -143 0
-13 -14 -16 142 0
13 -16 141 -143 0
-13 -14 -142 143 0
13 -14 -141 142 0
14 -16 -141 143 0
13 -141 -142 -143 0
-13 14 -16 -142 0
13 16 -144 0
-13 16 144 0
18 -19 20 147 0
-18 -20 147 148 0
-17 18 -145 148 0
17 18 -19 147 0
17 18 19 -147 0
17 145 -146 -148 0
17 18 -19 20 -145 0
17 19 20 -146 0
-17 -19 20 145 0
-17 19 20 -145 0
19 145 -146 -147 0
-18 -145 -147 -148 0
-18 -19 -20 -145 0
19 145 146 147 0
-18 -19 145 148 0
18 -19 146 -148 0
18 145 146 -147 0
-17 -18 -20 146 0
17 -20 145 -147 0
-17 -18 -146 147 0
17 -18 -145 146 0
18 -20 -145 147 0
17 -145 -146 -147 0
-17 18 -20 -146 0
17 20 -148 0
-17 20 148 0
22 -23 24 151 0
-22 -24 151 152 0
-21 22 -149 152 0
21 22 -23 151 0
21 22 23 -151 0
21 149 -150 -152 0
21 22 -23 24 -149 0
21 23 24 -150 0
-21 -23 24 149 0
-21 23 24 -149 0
23 149 -150 -151 0
-22 -149 -151 -152 0
-22 -23 -24 -149 0
23 149 150 151 0
-22 -23 149 152 0
22 -23 150 -152 0
22 149 150 -151 0
-21 -22 -24 150 0
21 -24 149 -151 0
-21 -22 -150 151 0
21 -22 -149 150 0
22 -24 -149 151 0
21 -149 -150 -151 0
-21 22 -24 -150 0
21 24 -152 0
-21 24 152 0
26 -27 28 155 0
-26 -28 155 156 0
-25 26 -153 156 0
25 26 -27 155 0
25 26 27 -155 0
25 153 -154 -156 0
25 26 -27 28 -153 0
25 27 28 -154 0
-25 -27 28 153 0
-25 27 28 -153 0
27 153 -154 -155 0
-26 -153 -155 -156 0
-26 -27 -28 -153 0
27 153 154 155 0
-26 -27 153 156 0
26 -27 154 -156 0
26 153 154 -155 0
-25 -26 -28 154 0
25 -28 153 -155 0
-25 -26 -154 155 0
25 -26 -153 154 0
26 -28 -153 155 0
25 -153 -154 -155 0
-25 26 -28 -154 0
25 28 -156 0
-25 28 156 0
30 -31 32 159 0
-30 -32 159 160 0
-29 30 -157 160 0
29 30 -31 159 0
29 30 31 -159 0
29 157 -158 -160 0
29 30 -31 32 -157 0
29 31 32 -158 0
-29 -31 32 157 0
-29 31 32 -157 0
31 157 -158 -159 0
-30 -157 -159 -160 0
-30 -31 -32 -157 0
31 157 158 159 0
-30 -31 157 160 0
30 -31 158 -160 0
30 157 158 -159 0
-29 -30 -32 158 0
29 -32 157 -159 0
-29 -30 -158 159 0
29 -30 -157 158 0
30 -32 -157 159 0
29 -157 -158 -159 0
-29 30 -32 -158 0
29 32 -160 0
-29 32 160 0
34 -35 36 163 0
-34 -36 163 164 0
-33 34 -161 164 0
33 34 -35 163 0
33 34 35 -163 0
33 161 -162 -164 0
33 34 -35 36 -161 0
33 35 36 -162 0
-33 -35 36 161 0
-33 35 36 -161 0
35 161 -162 -163 0
-34 -161 -163 -164 0
-34 -35 -36 -161 0
35 161 162 163 0
-34 -35 161 164 0
34 -35 162 -164 0
34 161 162 -163 0
-33 -34 -36 162 0
33 -36 161 -163 0
-33 -34 -162 163 0
33 -34 -161 162 0
34 -36 -161 163 0
33 -161 -162 -163 0
-33 34 -36 -162 0
33 36 -164 0
-33 36 164 0
38 -39 40 167 0
-38 -40 167 168 0
-37 38 -165 168 0
37 38 -39 167 0
37 38 39 -167 0
37 165 -166 -168 0
37 38 -39 40 -165 0
37 39 40 -166 0
-37 -39 40 165 0
-37 39 40 -165 0
39 165 -166 -167 0
-38 -165 -167 -168 0
-38 -39 -40 -165 0
39 165 166 167 0
-38 -39 165 168 0
38 -39 166 -168 0
38 165 166 -167 0
-37 -38 -40 166 0
37 -40 165 -167 0
-37 -38 -166 167 0
37 -38 -165 166 0
38 -40 -165 167 0
37 -165 -166 -167 0
-37 38 -40 -166 0
37 40 -168 0
-37 40 168 0
42 -43 44 171 0
-42 -44 171 172 0
-41 42 -169 172 0
41 42 -43 171 0
41 42 43 -171 0
41 169 -170 -172 0
41 42 -43 44 -169 0
41 43 44 -170 0
-41 -43 44 169 0
-41 43 44 -169 0
43 169 -170 -171 0
-42 -169 -171 -172 0
-42 -43 -44 -169 0
43 169 170 171 0
-42 -43 169 172 0
42 -43 170 -172 0
42 169 170 -171 0
-41 -42 -44 170 0
41 -44 169 -171 0
-41 -42 -170 171 0
41 -42 -169 170 0
42 -44 -169 171 0
41 -169 -170 -171 0
-41 42 -44 -170 0
41 44 -172 0
-41 44 172 0
46 -47 48 175 0
-46 -48 175 176 0
-45 46 -173 176 0
45 46 -47 175 0
45 46 47 -175 0
45 173 -174 -176 0
45 46 -47 48 -173 0
45 47 48 -174 0
-45 -47 48 173 0
-45 47 48 -173 0
47 173 -174 -175 0
-46 -173 -175 -176 0
-46 -47 -48 -173 0
47 173 174 175 0
-46 -47 173 176 0
46 -47 174 -176 0
46 173 174 -175 0
-45 -46 -48 174 0
45 -48 173 -175 0
-45 -46 -174 175 0
45 -46 -173 174 0
46 -48 -173 175 0
45 -173 -174 -175 0
-45 46 -48 -174 0
45 48 -176 0
-45 48 176 0
50 -51 52 179 0
-50 -52 179 180 0
-49 50 -177 180 0
49 50 -51 179 0
49 50 51 -179 0
49 177 -178 -180 0
49 50 -51 52 -177 0
49 51 52 -178 0
-49 -51 52 177 0
-49 51 52 -177 0
51 177 -178 -179 0
-50 -177 -179 -180 0
-50 -51 -52 -177 0
51 177 178 179 0
-50 -51 177 180 0
50 -51 178 -180 0
50 177 178 -179 0
-49 -50 -52 178 0
49 -52 177 -179 0
-49 -50 -178 179 0
49 -50 -177 178 0
50 -52 -177 179 0
49 -177 -178 -179 0
-49 50 -52 -178 0
49 52 -180 0
-49 52 180 0
55 56 181 0
55 -56 -181 0
-55 56 -181 0
-55 -56 181 0
55 -183 0
-55 183 0
181 182 0
-181 -182 0
-53 0
-54 0
-184 0
58 59 185 0
58 -59 -185 0
-58 59 -185 0
-58 -59 185 0
59 -186 0
-59 186 0
185 187 0
-185 -187 0
-57 0
-60 0
-188 0
62 -63 64 191 0
-62 -64 191 192 0
-61 62 -189 192 0
61 62 -63 191 0
61 62 63 -191 0
61 189 -190 -192 0
61 62 -63 64 -189 0
61 63 64 -190 0
-61 -63 64 189 0
-61 63 64 -189 0
63 189 -190 -191 0
-62 -189 -191 -192 0
-62 -63 -64 -189 0
63 189 190 191 0
-62 -63 189 192 0
62 -63 190 -192 0
62 189 190 -191 0
-61 -62 -64 190 0
61 -64 189 -191 0
-61 -62 -190 191 0
61 -62 -189 190 0
62 -64 -189 191 0
61 -189 -190 -191 0
-61 62 -64 -190 0
61 64 -192 0
-61 64 192 0
129 193 -65 0
129 -193 65 0
-129 193 65 0
-129 -193 -65 0
130 209 -66 0
130 -209 66 0
-130 209 66 0
-130 -209 -66 0
131 -67 0
-131 67 0
132 -68 0
-132 68 0
133 194 -69 0
133 -194 69 0
-133 194 69 0
-133 -194 -69 0
134 210 -70 0
134 -210 70 0
-134 210 70 0
-134 -210 -70 0
135 -71 0
-135 71 0
136 -72 0
-136 72 0
137 195 -73 0
137 -195 73 0
-137 195 73 0
-137 -195 -73 0
138 211 -74 0
138 -211 74 0
-138 211 74 0
-138 -211 -74 0
139 -75 0
-139 75 0
140 -76 0
-140 76 0
141 196 -77 0
141 -196 77 0
-141 196 77 0
-141 -196 -77 0
142 212 -78 0
142 -212 78 0
-142 212 78 0
-142 -212 -78 0
143 -79 0
-143 79 0
144 -80 0
-144 80 0
145 197 -81 0
145 -197 81 0
-145 197 81 0
-145 -197 -81 0
146 213 -82 0
146 -213 82 0
-146 213 82 0
-146 -213 -82 0
147 -83 0
-147 83 0
148 -84 0
-148 84 0
149 198 -85 0
149 -198 85 0
-149 198 85 0
-149 -198 -85 0
150 214 -86 0
150 -214 86 0
-150 214 86 0
-150 -214 -86 0
151 -87 0
-151 87 0
152 -88 0
-152 88 0
153 199 -89 0
153 -199 89 0
-153 199 89 0
-153 -199 -89 0
154 215 -90 0
154 -215 90 0
-154 215 90 0
-154 -215 -90 0
155 -91 0
-155 91 0
156 -92 0
-156 92 0
157 200 -93 0
157 -200 93 0
-157 200 93 0
-157 -200 -93 0
158 216 -94 0
158 -216 94 0
-158 216 94 0
-158 -216 -94 0
159 -95 0
-159 95 0
160 -96 0
-160 96 0
161 201 -97 0
161 -201 97 0
-161 201 97 0
-161 -201 -97 0
162 217 -98 0
162 -217 98 0
-162 217 98 0
-162 -217 -98 0
163 -99 0
-163 99 0
164 -100 0
-164 100 0
165 202 -101 0
165 -202 101 0
-165 202 101 0
-165 -202 -101 0
166 218 -102 0
166 -218 102 0
-166 218 102 0
-166 -218 -102 0
167 -103 0
-167 103 0
168 -104 0
-168 104 0
169 203 -105 0
169 -203 105 0
-169 203 105 0
-169 -203 -105 0
170 219 -106 0
170 -219 106 0
-170 219 106 0
-170 -219 -106 0
171 -107 0
-171 107 0
172 -108 0
-172 108 0
173 204 -109 0
173 -204 109 0
-173 204 109 0
-173 -204 -109 0
174 220 -110 0
174 -220 110 0
-174 220 110 0
-174 -220 -110 0
175 -111 0
-175 111 0
176 -112 0
-176 112 0
177 205 -113 0
177 -205 113 0
-177 205 113 0
-177 -205 -113 0
178 221 -114 0
178 -221 114 0
-178 221 114 0
-178 -221 -114 0
179 -115 0
-179 115 0
180 -116 0
-180 116 0
181 206 -117 0
181 -206 117 0
-181 206 117 0
-181 -206 -117 0
182 222 -118 0
182 -222 118 0
-182 222 118 0
-182 -222 -118 0
183 -119 0
-183 119 0
184 -120 0
-184 120 0
185 207 -121 0
185 -207 121 0
-185 207 121 0
-185 -207 -121 0
186 223 -122 0
186 -223 122 0
-186 223 122 0
-186 -223 -122 0
187 -123 0
-187 123 0
188 -124 0
-188 124 0
189 208 -125 0
189 -208 125 0
-189 208 125 0
-189 -208 -125 0
190 224 -126 0
190 -224 126 0
-190 224 126 0
-190 -224 -126 0
191 -127 0
-191 127 0
192 -128 0
-192 128 0